(declare-fun var0 () String)
(assert (RegexIn var0 (RegexConcat (RegexStar (RegexUnion (Str2Reg "fff") (Str2Reg "ggg"))) (RegexConcat (RegexUnion (RegexPlus (Str2Reg "ddd")) (RegexPlus (Str2Reg "eee"))) (RegexConcat (RegexStar (RegexUnion (Str2Reg "b") (Str2Reg "cc"))) (RegexConcat (RegexUnion (RegexStar (Str2Reg "88")) (RegexUnion (Str2Reg "999") (Str2Reg "aa"))) (RegexConcat (RegexStar (RegexUnion (Str2Reg "66") (Str2Reg "77"))) (RegexConcat (RegexPlus (RegexPlus (Str2Reg "55"))) (RegexConcat (RegexPlus (RegexPlus (Str2Reg "44"))) (RegexConcat (RegexUnion (RegexStar (Str2Reg "2")) (RegexStar (Str2Reg "33"))) (RegexConcat (RegexPlus (RegexStar (Str2Reg "111"))) (RegexPlus (RegexPlus (Str2Reg "000"))))))))))))))
(assert (RegexIn var0 (RegexConcat (RegexUnion (RegexStar (Str2Reg "hh")) (RegexStar (Str2Reg "iii"))) (RegexConcat (RegexUnion (RegexUnion (Str2Reg "ee") (Str2Reg "f")) (RegexPlus (Str2Reg "g"))) (RegexConcat (RegexStar (RegexStar (Str2Reg "d"))) (RegexConcat (RegexUnion (RegexUnion (Str2Reg "aaa") (Str2Reg "bbb")) (RegexStar (Str2Reg "ccc"))) (RegexConcat (RegexStar (RegexUnion (Str2Reg "888") (Str2Reg "999"))) (RegexConcat (RegexPlus (RegexUnion (Str2Reg "6") (Str2Reg "7"))) (RegexConcat (RegexPlus (RegexStar (Str2Reg "555"))) (RegexConcat (RegexUnion (RegexStar (Str2Reg "333")) (RegexPlus (Str2Reg "44"))) (RegexConcat (RegexStar (RegexPlus (Str2Reg "22"))) (RegexPlus (RegexUnion (Str2Reg "000") (Str2Reg "111"))))))))))))))
(assert (RegexIn var0 (RegexConcat (RegexStar (RegexUnion (Str2Reg "ff") (Str2Reg "gg"))) (RegexConcat (RegexUnion (RegexUnion (Str2Reg "bbb") (Str2Reg "c")) (RegexUnion (Str2Reg "d") (Str2Reg "e"))) (RegexConcat (RegexStar (RegexStar (Str2Reg "a"))) (RegexConcat (RegexUnion (RegexPlus (Str2Reg "88")) (RegexPlus (Str2Reg "99"))) (RegexConcat (RegexUnion (RegexStar (Str2Reg "6")) (RegexStar (Str2Reg "7"))) (RegexConcat (RegexStar (RegexPlus (Str2Reg "555"))) (RegexConcat (RegexStar (RegexUnion (Str2Reg "3") (Str2Reg "4"))) (RegexConcat (RegexStar (RegexStar (Str2Reg "2"))) (RegexConcat (RegexStar (RegexPlus (Str2Reg "11"))) (RegexPlus (RegexPlus (Str2Reg "00"))))))))))))))
(assert (RegexIn var0 (RegexConcat (RegexUnion (RegexUnion (Str2Reg "nnn") (Str2Reg "oo")) (RegexPlus (Str2Reg "ppp"))) (RegexConcat (RegexPlus (RegexUnion (Str2Reg "ll") (Str2Reg "mmm"))) (RegexConcat (RegexUnion (RegexStar (Str2Reg "j")) (RegexStar (Str2Reg "k"))) (RegexConcat (RegexPlus (RegexUnion (Str2Reg "hhh") (Str2Reg "i"))) (RegexConcat (RegexUnion (RegexStar (Str2Reg "eee")) (RegexUnion (Str2Reg "f") (Str2Reg "g"))) (RegexConcat (RegexUnion (RegexUnion (Str2Reg "aa") (Str2Reg "bbb")) (RegexUnion (Str2Reg "c") (Str2Reg "dd"))) (RegexConcat (RegexUnion (RegexStar (Str2Reg "888")) (RegexStar (Str2Reg "999"))) (RegexConcat (RegexUnion (RegexUnion (Str2Reg "4") (Str2Reg "55")) (RegexUnion (Str2Reg "666") (Str2Reg "7"))) (RegexConcat (RegexPlus (RegexUnion (Str2Reg "22") (Str2Reg "333"))) (RegexPlus (RegexUnion (Str2Reg "0") (Str2Reg "1"))))))))))))))
(assert (RegexIn var0 (RegexConcat (RegexStar (RegexStar (Str2Reg "hhh"))) (RegexConcat (RegexPlus (RegexPlus (Str2Reg "g"))) (RegexConcat (RegexStar (RegexStar (Str2Reg "fff"))) (RegexConcat (RegexUnion (RegexStar (Str2Reg "ccc")) (RegexUnion (Str2Reg "dd") (Str2Reg "eee"))) (RegexConcat (RegexPlus (RegexUnion (Str2Reg "aa") (Str2Reg "b"))) (RegexConcat (RegexStar (RegexStar (Str2Reg "999"))) (RegexConcat (RegexStar (RegexUnion (Str2Reg "777") (Str2Reg "8"))) (RegexConcat (RegexPlus (RegexPlus (Str2Reg "66"))) (RegexConcat (RegexUnion (RegexUnion (Str2Reg "333") (Str2Reg "44")) (RegexPlus (Str2Reg "555"))) (RegexUnion (RegexUnion (Str2Reg "00") (Str2Reg "1")) (RegexPlus (Str2Reg "222"))))))))))))))
(assert (RegexIn var0 (RegexConcat (RegexStar (RegexStar (Str2Reg "ff"))) (RegexConcat (RegexStar (RegexUnion (Str2Reg "ddd") (Str2Reg "eee"))) (RegexConcat (RegexStar (RegexStar (Str2Reg "c"))) (RegexConcat (RegexUnion (RegexStar (Str2Reg "99")) (RegexUnion (Str2Reg "a") (Str2Reg "bb"))) (RegexConcat (RegexPlus (RegexStar (Str2Reg "888"))) (RegexConcat (RegexUnion (RegexStar (Str2Reg "55")) (RegexUnion (Str2Reg "6") (Str2Reg "777"))) (RegexConcat (RegexStar (RegexPlus (Str2Reg "44"))) (RegexConcat (RegexPlus (RegexStar (Str2Reg "333"))) (RegexConcat (RegexPlus (RegexPlus (Str2Reg "222"))) (RegexStar (RegexUnion (Str2Reg "00") (Str2Reg "11"))))))))))))))
(assert (RegexIn var0 (RegexConcat (RegexUnion (RegexUnion (Str2Reg "lll") (Str2Reg "mmm")) (RegexUnion (Str2Reg "nn") (Str2Reg "ooo"))) (RegexConcat (RegexUnion (RegexPlus (Str2Reg "j")) (RegexPlus (Str2Reg "kkk"))) (RegexConcat (RegexUnion (RegexStar (Str2Reg "hh")) (RegexStar (Str2Reg "i"))) (RegexConcat (RegexUnion (RegexUnion (Str2Reg "ddd") (Str2Reg "e")) (RegexUnion (Str2Reg "f") (Str2Reg "gg"))) (RegexConcat (RegexUnion (RegexPlus (Str2Reg "b")) (RegexStar (Str2Reg "ccc"))) (RegexConcat (RegexPlus (RegexUnion (Str2Reg "9") (Str2Reg "aa"))) (RegexConcat (RegexUnion (RegexPlus (Str2Reg "77")) (RegexStar (Str2Reg "8"))) (RegexConcat (RegexPlus (RegexUnion (Str2Reg "55") (Str2Reg "66"))) (RegexConcat (RegexStar (RegexStar (Str2Reg "4"))) (RegexUnion (RegexUnion (Str2Reg "00") (Str2Reg "111")) (RegexUnion (Str2Reg "222") (Str2Reg "3"))))))))))))))
(assert (RegexIn var0 (RegexConcat (RegexStar (RegexStar (Str2Reg "dd"))) (RegexConcat (RegexStar (RegexPlus (Str2Reg "cc"))) (RegexConcat (RegexStar (RegexStar (Str2Reg "b"))) (RegexConcat (RegexStar (RegexUnion (Str2Reg "99") (Str2Reg "aa"))) (RegexConcat (RegexPlus (RegexStar (Str2Reg "88"))) (RegexConcat (RegexStar (RegexPlus (Str2Reg "777"))) (RegexConcat (RegexUnion (RegexStar (Str2Reg "555")) (RegexStar (Str2Reg "6"))) (RegexConcat (RegexStar (RegexPlus (Str2Reg "444"))) (RegexConcat (RegexStar (RegexUnion (Str2Reg "2") (Str2Reg "333"))) (RegexUnion (RegexStar (Str2Reg "00")) (RegexStar (Str2Reg "11"))))))))))))))
(assert (RegexIn var0 (RegexConcat (RegexStar (RegexPlus (Str2Reg "kk"))) (RegexConcat (RegexPlus (RegexStar (Str2Reg "jjj"))) (RegexConcat (RegexUnion (RegexPlus (Str2Reg "hh")) (RegexStar (Str2Reg "ii"))) (RegexConcat (RegexStar (RegexUnion (Str2Reg "fff") (Str2Reg "gg"))) (RegexConcat (RegexUnion (RegexUnion (Str2Reg "ccc") (Str2Reg "dd")) (RegexPlus (Str2Reg "eee"))) (RegexConcat (RegexUnion (RegexPlus (Str2Reg "999")) (RegexUnion (Str2Reg "aaa") (Str2Reg "bbb"))) (RegexConcat (RegexPlus (RegexUnion (Str2Reg "77") (Str2Reg "888"))) (RegexConcat (RegexStar (RegexStar (Str2Reg "666"))) (RegexConcat (RegexUnion (RegexUnion (Str2Reg "3") (Str2Reg "4")) (RegexPlus (Str2Reg "555"))) (RegexUnion (RegexStar (Str2Reg "00")) (RegexUnion (Str2Reg "111") (Str2Reg "222"))))))))))))))
(assert (RegexIn var0 (RegexConcat (RegexPlus (RegexPlus (Str2Reg "h"))) (RegexConcat (RegexUnion (RegexPlus (Str2Reg "fff")) (RegexStar (Str2Reg "g"))) (RegexConcat (RegexUnion (RegexStar (Str2Reg "d")) (RegexStar (Str2Reg "eee"))) (RegexConcat (RegexPlus (RegexStar (Str2Reg "ccc"))) (RegexConcat (RegexStar (RegexStar (Str2Reg "bbb"))) (RegexConcat (RegexUnion (RegexPlus (Str2Reg "9")) (RegexPlus (Str2Reg "aaa"))) (RegexConcat (RegexStar (RegexUnion (Str2Reg "77") (Str2Reg "888"))) (RegexConcat (RegexUnion (RegexPlus (Str2Reg "555")) (RegexStar (Str2Reg "66"))) (RegexConcat (RegexUnion (RegexUnion (Str2Reg "22") (Str2Reg "333")) (RegexStar (Str2Reg "44"))) (RegexPlus (RegexUnion (Str2Reg "0") (Str2Reg "11"))))))))))))))
(assert (RegexIn var0 (RegexConcat (RegexUnion (RegexPlus (Str2Reg "ii")) (RegexStar (Str2Reg "jjj"))) (RegexConcat (RegexPlus (RegexUnion (Str2Reg "g") (Str2Reg "hh"))) (RegexConcat (RegexPlus (RegexStar (Str2Reg "f"))) (RegexConcat (RegexPlus (RegexUnion (Str2Reg "dd") (Str2Reg "e"))) (RegexConcat (RegexUnion (RegexPlus (Str2Reg "bb")) (RegexStar (Str2Reg "cc"))) (RegexConcat (RegexStar (RegexUnion (Str2Reg "99") (Str2Reg "aa"))) (RegexConcat (RegexPlus (RegexPlus (Str2Reg "8"))) (RegexConcat (RegexUnion (RegexUnion (Str2Reg "5") (Str2Reg "6")) (RegexPlus (Str2Reg "7"))) (RegexConcat (RegexPlus (RegexPlus (Str2Reg "44"))) (RegexUnion (RegexUnion (Str2Reg "000") (Str2Reg "111")) (RegexUnion (Str2Reg "22") (Str2Reg "333"))))))))))))))
(assert (RegexIn var0 (RegexConcat (RegexUnion (RegexUnion (Str2Reg "ddd") (Str2Reg "e")) (RegexUnion (Str2Reg "fff") (Str2Reg "ggg"))) (RegexConcat (RegexUnion (RegexStar (Str2Reg "bbb")) (RegexStar (Str2Reg "ccc"))) (RegexConcat (RegexStar (RegexUnion (Str2Reg "9") (Str2Reg "a"))) (RegexConcat (RegexPlus (RegexStar (Str2Reg "8"))) (RegexConcat (RegexPlus (RegexPlus (Str2Reg "77"))) (RegexConcat (RegexPlus (RegexPlus (Str2Reg "666"))) (RegexConcat (RegexPlus (RegexPlus (Str2Reg "5"))) (RegexConcat (RegexPlus (RegexPlus (Str2Reg "444"))) (RegexConcat (RegexStar (RegexUnion (Str2Reg "222") (Str2Reg "3"))) (RegexUnion (RegexStar (Str2Reg "0")) (RegexStar (Str2Reg "11"))))))))))))))
(assert (RegexIn var0 (RegexConcat (RegexPlus (RegexUnion (Str2Reg "l") (Str2Reg "mmm"))) (RegexConcat (RegexUnion (RegexStar (Str2Reg "ii")) (RegexUnion (Str2Reg "jjj") (Str2Reg "kk"))) (RegexConcat (RegexUnion (RegexUnion (Str2Reg "fff") (Str2Reg "g")) (RegexStar (Str2Reg "hhh"))) (RegexConcat (RegexStar (RegexStar (Str2Reg "ee"))) (RegexConcat (RegexUnion (RegexUnion (Str2Reg "aa") (Str2Reg "bb")) (RegexUnion (Str2Reg "ccc") (Str2Reg "dd"))) (RegexConcat (RegexPlus (RegexStar (Str2Reg "999"))) (RegexConcat (RegexUnion (RegexPlus (Str2Reg "6")) (RegexUnion (Str2Reg "7") (Str2Reg "88"))) (RegexConcat (RegexUnion (RegexPlus (Str2Reg "33")) (RegexUnion (Str2Reg "444") (Str2Reg "555"))) (RegexConcat (RegexStar (RegexPlus (Str2Reg "22"))) (RegexUnion (RegexStar (Str2Reg "00")) (RegexStar (Str2Reg "11"))))))))))))))
(assert (RegexIn var0 (RegexConcat (RegexPlus (RegexStar (Str2Reg "fff"))) (RegexConcat (RegexStar (RegexStar (Str2Reg "eee"))) (RegexConcat (RegexStar (RegexUnion (Str2Reg "ccc") (Str2Reg "ddd"))) (RegexConcat (RegexPlus (RegexStar (Str2Reg "b"))) (RegexConcat (RegexPlus (RegexPlus (Str2Reg "aa"))) (RegexConcat (RegexUnion (RegexUnion (Str2Reg "77") (Str2Reg "888")) (RegexPlus (Str2Reg "9"))) (RegexConcat (RegexUnion (RegexPlus (Str2Reg "55")) (RegexStar (Str2Reg "66"))) (RegexConcat (RegexUnion (RegexPlus (Str2Reg "2")) (RegexUnion (Str2Reg "3") (Str2Reg "444"))) (RegexConcat (RegexStar (RegexPlus (Str2Reg "11"))) (RegexStar (RegexPlus (Str2Reg "000"))))))))))))))
(check-sat)